CMD:
./solvers/bin/cadical --plain --no-reduce -t 1600 ./data/cnfs//circular_pointer_top_w32_d32_e0/circular_pointer_top_w32_d32_e0.64.cnf

c --- [ banner ] -------------------------------------------------------------
c 
c CaDiCaL SAT Solver
c Copyright (c) 2016-2024
c A. Biere, M. Fleury, N. Froleyks, K. Fazekas, F. Pollitt, T. Faller
c JKU Linz, University of Freiburg, TU Wien
c 
c Version 2.1.3 5296d3d2a9bf48c154ab2acb5e44625776d821bf
c g++ (Gentoo 12.3.1_p20230526 p2) 12.3.1 20230526 -Wall -Wextra -O3 -DNDEBUG
c Sat Aug 9 07:26:21 PDT 2025 Linux cedar2.int.cedar.computecanada.ca 5.14.0-362.24.2.el9_3.x86_64 x86_64
c 
c --- [ limit ] --------------------------------------------------------------
c 
c setting time limit to 1600 seconds real time (due to '-t 1600')
c 
c --- [ parsing input ] ------------------------------------------------------
c 
c reading DIMACS file from './data/cnfs//circular_pointer_top_w32_d32_e0/circular_pointer_top_w32_d32_e0.64.cnf'
c opening file to read './data/cnfs//circular_pointer_top_w32_d32_e0/circular_pointer_top_w32_d32_e0.64.cnf'
c found 'p cnf 534380 1586326' header
c parsed 1586326 clauses in 0.23 seconds process time
c 
c --- [ options ] ------------------------------------------------------------
c 
c   --compact=false                (different from default 'true')
c   --decompose=false              (different from default 'true')
c   --deduplicate=false            (different from default 'true')
c   --elim=false                   (different from default 'true')
c   --probe=false                  (different from default 'true')
c   --reduce=false                 (different from default 'true')
c   --subsume=false                (different from default 'true')
c   --ternary=false                (different from default 'true')
c   --transred=false               (different from default 'true')
c   --vivify=false                 (different from default 'true')
c 
c --- [ solving ] ------------------------------------------------------------
c 
c time measured in process time since initialization
c 
c  seconds   reductions  redundant   irredundant
c          MB    restarts       trail        variables
c           level   conflicts       glue           remaining
c 
c *  0.23 250  0 0   0    0    0  0% 0 1533806 506603 95%
c {  0.29 258  0 0   0    0    0  0% 0 1533806 506603 95%
c i  0.37 261 3562 0   0   96   95 63% 3 1533806 506455 95%
c i  0.37 261 3644 0   0  106  104 66% 3 1533806 506414 95%
c i  0.37 261 3666 0   0  109  105 66% 3 1533806 506406 95%
c i  0.38 261 4005 0   0  283  261 74% 2 1533806 506405 95%
c i  0.46 261 3307 0  14  521  475 63% 3 1533806 505847 95%
c i  0.46 261 3294 0  14  523  476 63% 3 1533806 505231 95%
c i  0.46 261 3262 0  16  528  480 63% 3 1533806 504809 94%
c i  0.72 261 2317 0  70  752  689 49% 3 1533806 504805 94%
c }  0.74 261 1751 0  72 1000  901 39% 3 1533806 504805 94%
c [  0.74 261  0 0  72 1000  901  0% 0 1533806 504805 94%
c O  0.80 261 2321 0  72 1002  903 49% 18 1533806 504805 94%
c i  1.70 262 3245 0  73 2131 1932 68% 17 1533806 504804 94%
c ]  1.95 262 1987 0  73 3000 2725 52% 12 1533806 504804 94%
c {  1.95 262 1751 0  73 3000 2725 39% 3 1533806 504804 94%
c F  1.95 262 1746 0  73 3003 2728 39% 3 1533806 504804 94%
c i  1.96 262 1723 0  73 3018 2740 39% 3 1533806 504798 94%
c i  1.96 262 1718 0  73 3021 2741 39% 3 1533806 503315 94%
c i  1.96 262 1711 0  73 3026 2744 38% 3 1533806 503036 94%
c 
c  seconds     reductions  redundant   irredundant
c          MB      restarts       trail        variables
c            level    conflicts       glue           remaining
c 
c i  1.96 262 1645 0  73 3069 2778 37% 3 1533806 502707 94%
c i  2.02 262 1404 0  79 3265 2957 34% 3 1533806 502150 94%
c i  2.02 262 1402 0  79 3267 2958 34% 3 1533806 502133 94%
c i  2.02 262 1373 0  79 3294 2979 34% 3 1533806 502123 94%
c i  2.02 262 1370 0  79 3296 2980 34% 3 1533806 502117 94%
c i  2.03 262 1297 0  88 3370 3048 32% 3 1533806 502093 94%
c i  2.07 262 1240 0 105 3435 3106 31% 3 1533806 502088 94%
c i  2.07 262 1236 0 107 3440 3109 31% 3 1533806 502085 94%
c i  2.07 262 1234 0 107 3444 3111 31% 3 1533806 502081 94%
c i  2.07 262 1231 0 107 3447 3113 31% 3 1533806 502070 94%
c i  2.07 262 1226 0 107 3454 3118 31% 3 1533806 502063 94%
c i  2.07 262 1225 0 107 3455 3118 31% 3 1533806 502054 94%
c i  2.07 262 1224 0 107 3456 3118 31% 3 1533806 502050 94%
c i  2.07 262 1202 0 107 3482 3143 31% 3 1533806 502046 94%
c i  2.07 262 1199 0 107 3485 3145 30% 3 1533806 502039 94%
c i  2.07 262 1170 0 107 3521 3173 30% 3 1533806 502030 94%
c i  2.12 262 975 0 141 3837 3468 27% 3 1533806 502026 94%
c i  2.12 262 972 0 141 3843 3472 27% 3 1533806 502018 94%
c i  2.12 262 940 0 141 3911 3528 26% 3 1533806 502017 94%
c i  2.13 262 932 0 141 3928 3541 26% 3 1533806 502015 94%
c 
c  seconds    reductions  redundant   irredundant
c          MB     restarts       trail        variables
c            level   conflicts       glue           remaining
c 
c i  2.13 262 927 0 141 3937 3548 26% 3 1533806 502013 94%
c i  2.13 262 927 0 141 3938 3548 26% 3 1533806 502009 94%
c i  2.13 262 908 0 141 3979 3583 26% 3 1533806 502002 94%
c i  2.13 262 905 0 141 3986 3589 26% 3 1533806 502000 94%
... skipped 54262 lines ...
v -533899 -533900 533901 -533902 -533903 -533904 533905 -533906 -533907
v -533908 533909 -533910 -533911 -533912 533913 -533914 -533915 -533916 533917
v -533918 -533919 -533920 533921 -533922 -533923 -533924 533925 -533926
v -533927 -533928 533929 -533930 -533931 -533932 533933 -533934 -533935
v -533936 533937 -533938 -533939 -533940 533941 -533942 -533943 -533944 533945
v -533946 -533947 -533948 533949 -533950 -533951 -533952 533953 -533954
v -533955 -533956 533957 -533958 -533959 -533960 533961 -533962 -533963
v -533964 533965 -533966 -533967 -533968 533969 -533970 -533971 -533972 533973
v -533974 -533975 -533976 533977 -533978 -533979 -533980 533981 -533982
v -533983 -533984 533985 -533986 -533987 -533988 533989 -533990 -533991
v -533992 -533993 -533994 -533995 533996 -533997 -533998 -533999 534000
v -534001 -534002 -534003 534004 -534005 -534006 -534007 534008 -534009
v -534010 -534011 534012 -534013 -534014 -534015 534016 -534017 -534018
v -534019 534020 -534021 -534022 -534023 534024 -534025 -534026 -534027 534028
v -534029 -534030 -534031 534032 -534033 -534034 -534035 534036 -534037
v -534038 -534039 534040 -534041 -534042 -534043 534044 -534045 -534046
v -534047 534048 -534049 -534050 -534051 534052 -534053 -534054 -534055 534056
v -534057 -534058 -534059 534060 -534061 -534062 -534063 534064 -534065
v -534066 -534067 534068 -534069 -534070 -534071 534072 -534073 -534074
v -534075 534076 -534077 -534078 -534079 534080 -534081 -534082 -534083 534084
v -534085 -534086 -534087 534088 -534089 -534090 -534091 534092 -534093
v -534094 -534095 534096 -534097 -534098 -534099 534100 -534101 -534102
v -534103 534104 -534105 -534106 -534107 534108 -534109 -534110 -534111 534112
v -534113 -534114 -534115 534116 -534117 -534118 -534119 534120 -534121
v -534122 -534123 -534124 -534125 534126 -534127 -534128 -534129 534130
v -534131 -534132 -534133 534134 -534135 -534136 -534137 534138 -534139
v -534140 -534141 534142 -534143 -534144 -534145 534146 -534147 -534148
v -534149 534150 -534151 -534152 -534153 534154 -534155 -534156 -534157 534158
v -534159 -534160 -534161 534162 -534163 -534164 -534165 534166 -534167
v -534168 -534169 534170 -534171 -534172 -534173 534174 -534175 -534176
v -534177 534178 -534179 -534180 -534181 534182 -534183 -534184 -534185 534186
v -534187 -534188 -534189 534190 -534191 -534192 -534193 534194 -534195
v -534196 -534197 534198 -534199 -534200 -534201 534202 -534203 -534204
v -534205 534206 -534207 -534208 -534209 534210 -534211 -534212 -534213 534214
v -534215 -534216 -534217 534218 -534219 -534220 -534221 534222 -534223
v -534224 -534225 534226 -534227 -534228 -534229 534230 -534231 -534232
v -534233 534234 -534235 -534236 -534237 534238 -534239 -534240 -534241 534242
v -534243 -534244 -534245 534246 -534247 -534248 -534249 534250 -534251
v -534252 -534253 -534254 -534255 534256 -534257 -534258 -534259 534260
v -534261 -534262 -534263 534264 -534265 -534266 -534267 534268 -534269
v -534270 -534271 534272 -534273 -534274 -534275 534276 -534277 -534278
v -534279 534280 -534281 -534282 -534283 534284 -534285 -534286 -534287 534288
v -534289 -534290 -534291 534292 -534293 -534294 -534295 534296 -534297
v -534298 -534299 534300 -534301 -534302 -534303 534304 -534305 -534306
v -534307 534308 -534309 -534310 -534311 534312 -534313 -534314 -534315 534316
v -534317 -534318 -534319 534320 -534321 -534322 -534323 534324 -534325
v -534326 -534327 534328 -534329 -534330 -534331 534332 -534333 -534334
v -534335 534336 -534337 -534338 -534339 534340 -534341 -534342 -534343 534344
v -534345 -534346 -534347 534348 -534349 -534350 -534351 534352 -534353
v -534354 -534355 534356 -534357 -534358 -534359 534360 -534361 -534362
v -534363 534364 -534365 -534366 -534367 534368 -534369 -534370 -534371 534372
v -534373 -534374 -534375 534376 -534377 -534378 534379 -534380 0
c 
c --- [ run-time profiling ] -------------------------------------------------
c 
c process time taken by individual solving procedures
c (percentage relative to process time for solving)
c 
c         4.75  100.00% search
c         3.08   64.83% stable
c         1.60   33.79% unstable
c         0.23    4.78% parse
c         0.07    1.37% lucky
c         0.00    0.00% simplify
c   =================================
c         4.75   94.97% solve
c 
c last line shows process time for solving
c (percentage relative to total process time)
c 
c --- [ statistics ] ---------------------------------------------------------
c 
c chronological:              3616        26.95 %  of conflicts
c conflicts:                 13417      2825.77    per second
c decisions:                 67640     14245.75    per second
c fixed:                     52718         9.87 %  of all variables
c learned:                   13061        97.35 %  per conflict
c learned_lits:             536117       100.00 %  learned literals
c minimized:                     0         0.00 %  learned literals
c shrunken:                 163977        30.59 %  learned literals
c minishrunken:              66497        12.40 %  learned literals
c otfs:                        180         1.34 %  of conflict
c propagations:           88884341        18.72 M  per second
c rephased:                      4      3354.25    interval
c restarts:                    321        41.80    interval
c stabilizing:                   2        62.71 %  of conflicts
c subsumed:                    955         0.06 %  of all clauses
c strengthened:                176         0.01 %  of all clauses
c 
c seconds are measured in process time for solving
c 
c --- [ resources ] ----------------------------------------------------------
c 
c total process time since initialization:         5.00    seconds
c total real time since initialization:            5.03    seconds
c maximum resident set size of process:          262.54    MB
c 
c --- [ shutting down ] ------------------------------------------------------
c 
c exit 10
